47
23
3
14 2
11 0
19 2
3 2
19 3
12 3
14 2
22 3
14 3
12 2
16 0
4 0
17 0
12 1
17 3
21 2
3 2
20 1
23 2
20 0
12 1
5 2
19 2
12 0
2 2
12 0
23 0
15 0
9 2
18 2
13 3
12 3
1 2
23 0
18 0
17 1
2 2
6 3
12 0
3 1
5 2
11 3
13 0
11 2
16 3
5 3
5 0
